
Gurobi 11.0.2 (win64) logging started Mon Aug 19 17:20:13 2024

Set parameter LogFile to value "D:\Documenti\Scuola\Laurea magistrale unibs\laurea-unibs-mkfsp\output\2024-08-19T13_57_45.433552\logs\instance09_bucket2.log"
Set parameter TimeLimit to value 400
Set parameter MIPGap to value 0
Gurobi Optimizer version 11.0.2 build v11.0.2rc0 (win64 - Windows 10.0 (19045.2))

CPU model: Intel(R) Core(TM) i5-4670 CPU @ 3.40GHz, instruction set [SSE2|AVX|AVX2]
Thread count: 4 physical cores, 4 logical processors, using up to 4 threads

Optimize a model with 3583 rows, 17083 columns and 479199 nonzeros
Model fingerprint: 0x14977148
Variable types: 0 continuous, 17083 integer (16949 binary)
Coefficient statistics:
  Matrix range     [1e+00, 9e+03]
  Objective range  [6e+02, 9e+03]
  Bounds range     [1e+00, 1e+00]
  RHS range        [1e+00, 6e+05]
Found heuristic solution: objective 586510.00000
Presolve time: 1.10s
Presolved: 3583 rows, 17083 columns, 479199 nonzeros
Variable types: 0 continuous, 17083 integer (16949 binary)
Found heuristic solution: objective 626830.00000
Deterministic concurrent LP optimizer: primal and dual simplex
Showing primal log only...

Concurrent spin time: 0.00s

Solved with dual simplex

Root relaxation: objective 7.642410e+05, 989 iterations, 0.26 seconds (0.24 work units)

    Nodes    |    Current Node    |     Objective Bounds      |     Work
 Expl Unexpl |  Obj  Depth IntInf | Incumbent    BestBd   Gap | It/Node Time

H    0     0                    764241.00000 764241.000  0.00%     -    1s
     0     0 764241.000    0  735 764241.000 764241.000  0.00%     -    1s

Explored 1 nodes (989 simplex iterations) in 1.44 seconds (1.15 work units)
Thread count was 4 (of 4 available processors)

Solution count 3: 764241 626830 586510 

Optimal solution found (tolerance 0.00e+00)
Best objective 7.642410000000e+05, best bound 7.642410000000e+05, gap 0.0000%
